011101110100000110111101011010110101001001101111000001011110000011111001100101111000001110000000110100010001111011100111010011101011101000101001101101101100011011101111110011001011101110010000001011101001110000000011011010101010000100001010001010001110111111100000110010110001011001001100